NAME : eil101
TYPE : OP
DIMENSION : 101
COST_LIMIT : 409
ROUTE_NODES : 74
ROUTE_SCORE : 4306
ROUTE_COST : 409
NODE_SEQUENCE_SECTION
1
69
27
101
28
26
12
54
55
25
4
56
23
75
22
74
72
73
21
40
58
13
94
95
97
87
57
15
43
42
100
91
16
61
85
93
98
37
92
59
99
96
6
89
52
18
83
60
5
84
45
8
82
7
88
62
11
63
90
32
30
20
66
71
35
34
78
81
33
79
3
77
76
50
-1
DEPOT_SECTION
1
-1
EOF
